# AMPL MODEL: ./res/solid.ampl

# Timestamp: 17 February 2025, 10:43:09 AM

param MAXWORK := 32;

param:
TNAME: TWORK :=
'alpha.pf' 20
'alpha.pm' 180
'alpha2.pe' 40
'alpha2.pf' 40
'alpha2.pm' 160
'beta.pf' 20
'beta.pm' 260
'beta2.pe' 200
'beta2.pf' 160
'beta2.pm' 320
'charlie.pf' 40
'charlie.pm' 320
'delta.pf' 20
'delta.pm' 100
'delta2.pf' 40
'delta2.pm' 120
'echo.pf' 20
'echo.pm' 80
'echo2.pf' 40
'echo2.pm' 80
'foxtrot.pf' 20
'foxtrot.pm' 80
'foxtrot2.pf' 20
'foxtrot2.pm' 40
'gamma2.pf' 40
'gamma2.pm' 60
'golf.pf' 40
'golf.pm' 160
'golf2.pf' 60
'golf2.pm' 160
'hotel.pf' 40
'hotel.pm' 320
'hotel2.pf' 20
'hotel2.pm' 40
'india.pf' 100
'india.pm' 520
'india2.pf' 40
'india2.pm' 160
'juliet.pe' 40
'juliet.pf' 20
'juliet.pm' 200
'juliet2.pf' 40
'juliet2.pm' 200
'kilo.pe' 100
'kilo.pf' 80
'kilo.pm' 60
'kilo2.pf' 60
'kilo2.pm' 120
'lima.pe' 100
'lima.pf' 80
'lima.pm' 400
'lima2.pf' 60
'lima2.pm' 100
'mike.pe' 40
'mike.pf' 20
'mike.pm' 200
'mike2.pe' 80
'mike2.pf' 80
'mike2.pm' 320
'november.pe' 40
'november.pf' 20
'november.pm' 220
'november2.pf' 80
'november2.pm' 240
'oscar.pe' 60
'oscar.pf' 40
'oscar.pm' 280
'oscar2.pf' 80
'oscar2.pm' 240
'papa2.pf' 80
'papa2.pm' 400
'quebec2.pe' 100
'quebec2.pf' 80
'quebec2.pm' 480
'romeo2.pf' 60
'romeo2.pm' 120
'sierra2.pf' 40
'sierra2.pm' 160
'tango2.pe' 200
'tango2.pf' 120
'tango2.pm' 600
'uniform2.pe' 200
'uniform2.pf' 80
'uniform2.pm' 640
'victor2.pe' 240
'victor2.pf' 80
'victor2.pm' 360
'whisky2.pe' 240
'whisky2.pf' 80
'whisky2.pm' 800
'xray2.pe' 100
'xray2.pf' 40
'xray2.pm' 480
'zulu2.pe' 200
'zulu2.pf' 80
'zulu2.pm' 360;

set TSCOPE['alpha.pf'] :=
93 94 95 98 99 100 101 102 105 106 107 108 109 112 113 114 115 116 119 120 121 123
;

set TSCOPE['alpha.pm'] :=
3 4 7 8 9 10 11 14 15 16 17 18 21 22 23 24 25 28 29 30 31 32 35 36 37 38 39 42 43 44 45 46 49 50 51 52 53 56 57 58 59 60 63 64 65 66 67 70 71 72
73 74 77 78 79 80 81 84 85 86 87 88 91 92
;

set TSCOPE['alpha2.pe'] :=
28 29 30 31 32
;

set TSCOPE['alpha2.pf'] :=
80 81 84 85 86 87 88 91 92
;

set TSCOPE['alpha2.pm'] :=
35 36 37 38 39 42 43 44 45 46 49 50 51 52 53 56 57 58 59 60 63 64 65 66 67 70 71 72 73 74 77 78 79
;

set TSCOPE['beta.pf'] :=
175 176 177 178 179 182 183 184 185 186 189 190 191 192 193 196 197 198 199 200 203 204 205 206 207 210 211 212 213 214 217 218
;

set TSCOPE['beta.pm'] :=
3 4 7 8 9 10 11 14 15 16 17 18 21 22 23 24 25 28 29 30 31 32 35 36 37 38 39 42 43 44 45 46 49 50 51 52 53 56 57 58 59 60 63 64 65 66 67 70 71 72
73 74 77 78 79 80 81 84 85 86 87 88 91 92 93 94 95 98 99 100 101 102 105 106 107 108 109 112 113 114 115 116 119 120 121 123 126 127 128 129 130 133 134 135 136 137 140 141 142 143
144 147 148 149 150 151 154 155 156 157 158 161 162 163 164 165 168 169 170 171 172
;

set TSCOPE['beta2.pe'] :=
7 8 9 10 11 14 15 16
;

set TSCOPE['beta2.pf'] :=
198 199 200 203 204 205 206 207 210 211 212 213 214 217
;

set TSCOPE['beta2.pm'] :=
17 18 21 22 23 24 25 28 29 30 31 32 35 36 37 38 39 42 43 44 45 46 49 50 51 52 53 56 57 58 59 60 63 64 65 66 67 70 71 72 73 74 77 78 79 80 81 84 85 86
87 88 91 92 93 94 95 98 99 100 101 102 105 106 107 108 109 112 113 114 115 116 119 120 121 123 126 127 128 129 130 133 134 135 136 137 140 141 142 143 144 147 148 149 150 151 154 155 156 157
158 161 162 163 164 165 168 169 170 171 172 175 176 177 178 179 182 183 184 185 186 189 190 191 192 193 196 197
;

set TSCOPE['charlie.pf'] :=
158 161 162 163 164 165 168 169 170 171 172 175 176 177 178 179 182 183 184 185 186
;

set TSCOPE['charlie.pm'] :=
3 4 7 8 9 10 11 14 15 16 17 18 21 22 23 24 25 28 29 30 31 32 35 36 37 38 39 42 43 44 45 46 49 50 51 52 53 56 57 58 59 60 63 64 65 66 67 70 71 72
73 74 77 78 79 80 81 84 85 86 87 88 91 92 93 94 95 98 99 100 101 102 105 106 107 108 109 112 113 114 115 116 119 120 121 123 126 127 128 129 130 133 134 135 136 137 140 141 142 143
144 147 148 149 150 151 154 155 156 157
;

set TSCOPE['delta.pf'] :=
58 59 60 63 64 65 66 67 70 71 72 73 74 77 78 79 80 81 84 85 86 87 88 91 92 93 94 95 98 99 100 101 102
;

set TSCOPE['delta.pm'] :=
3 4 7 8 9 10 11 14 15 16 17 18 21 22 23 24 25 28 29 30 31 32 35 36 37 38 39 42 43 44 45 46 49 50 51 52 53 56 57
;

set TSCOPE['delta2.pf'] :=
175 176 177 178 179 182 183
;

set TSCOPE['delta2.pm'] :=
3 4 7 8 9 10 11 14 15 16 17 18 21 22 23 24 25 28 29 30 31 32 35 36 37 38 39 42 43 44 45 46 49 50 51 52 53 56 57 58 59 60 63 64 65 66 67 70 71 72
73 74 77 78 79 80 81 84 85 86 87 88 91 92 93 94 95 98 99 100 101 102 105 106 107 108 109 112 113 114 115 116 119 120 121 123 126 127 128 129 130 133 134 135 136 137 140 141 142 143
144 147 148 149 150 151 154 155 156 157 158 161 162 163 164 165 168 169 170 171 172
;

set TSCOPE['echo.pf'] :=
93 94 95 98 99 100 101 102 105 106 107 108 109 112 113 114 115 116 119 120 121 123 126 127 128 129 130 133 134 135 136 137
;

set TSCOPE['echo.pm'] :=
3 4 7 8 9 10 11 14 15 16 17 18 21 22 23 24 25 28 29 30 31 32 35 36 37 38 39 42 43 44 45 46 49 50 51 52 53 56 57 58 59 60 63 64 65 66 67 70 71 72
73 74
;

set TSCOPE['echo2.pf'] :=
23 24 25 28 29 30 31 32 35 36 37 38 39 42 43 44 45 46 49 50 51 52 53 56 57 58 59 60 63 64 65 66 67 70
;

set TSCOPE['echo2.pm'] :=
3 4 7 8 9 10 11 14 15 16 17 18 21 22
;

set TSCOPE['foxtrot.pf'] :=
93 94 95 98 99 100 101 102 105 106 107 108 109 112 113 114 115 116 119 120 121 123
;

set TSCOPE['foxtrot.pm'] :=
3 4 7 8 9 10 11 14 15 16 17 18 21 22 23 24 25 28 29 30 31 32 35 36 37 38 39 42 43 44 45 46 49 50 51 52 53 56 57 58 59 60 63 64 65 66 67 70 71 72
73 74 77 78 79 80 81 84 85 86 87 88 91 92
;

set TSCOPE['foxtrot2.pf'] :=
84 85 86 87 88 91 92
;

set TSCOPE['foxtrot2.pm'] :=
3 4 7 8 9 10 11 14 15 16 17 18 21 22 23 24 25 28 29 30 31 32 35 36 37 38 39 42 43 44 45 46 49 50 51 52 53 56 57 58 59 60 63 64 65 66 67 70 71 72
73 74 77 78 79 80 81
;

set TSCOPE['gamma2.pf'] :=
23 24 25 28 29 30 31 32 35
;

set TSCOPE['gamma2.pm'] :=
3 4 7 8 9 10 11 14 15 16 17 18 21 22
;

set TSCOPE['golf.pf'] :=
134 135 136 137 140 141 142 143 144 147 148 149 150 151 154 155 156 157 158 161 162 163 164 165 168 169 170 171 172 175 176 177 178 179
;

set TSCOPE['golf.pm'] :=
3 4 7 8 9 10 11 14 15 16 17 18 21 22 23 24 25 28 29 30 31 32 35 36 37 38 39 42 43 44 45 46 49 50 51 52 53 56 57 58 59 60 63 64 65 66 67 70 71 72
73 74 77 78 79 80 81 84 85 86 87 88 91 92 93 94 95 98 99 100 101 102 105 106 107 108 109 112 113 114 115 116 119 120 121 123 126 127 128 129 130 133
;

set TSCOPE['golf2.pf'] :=
84 85 86 87 88 91
;

set TSCOPE['golf2.pm'] :=
3 4 7 8 9 10 11 14 15 16 17 18 21 22 23 24 25 28 29 30 31 32 35 36 37 38 39 42 43 44 45 46 49 50 51 52 53 56 57 58 59 60 63 64 65 66 67 70 71 72
73 74 77 78 79 80 81
;

set TSCOPE['hotel.pf'] :=
246 247 248 249 252 253 254 255 256 259 260 261 262 263 266 267 268 269 270 273 274 275 276 277 280 281 282 283 284 287 288 289 290 291
;

set TSCOPE['hotel.pm'] :=
3 4 7 8 9 10 11 14 15 16 17 18 21 22 23 24 25 28 29 30 31 32 35 36 37 38 39 42 43 44 45 46 49 50 51 52 53 56 57 58 59 60 63 64 65 66 67 70 71 72
73 74 77 78 79 80 81 84 85 86 87 88 91 92 93 94 95 98 99 100 101 102 105 106 107 108 109 112 113 114 115 116 119 120 121 123 126 127 128 129 130 133 134 135 136 137 140 141 142 143
144 147 148 149 150 151 154 155 156 157 158 161 162 163 164 165 168 169 170 171 172 175 176 177 178 179 182 183 184 185 186 189 190 191 192 193 196 197 198 199 200 203 204 205 206 207 210 211 212 213
214 217 218 219 220 221 224 225 226 227 228 231 232 233 234 235 238 239 240 241 242 245
;

set TSCOPE['hotel2.pf'] :=
49 50 51 52 53 56 57
;

set TSCOPE['hotel2.pm'] :=
3 4 7 8 9 10 11 14 15 16 17 18 21 22 23 24 25 28 29 30 31 32 35 36 37 38 39 42 43 44 45 46
;

set TSCOPE['india.pf'] :=
276 277 280 281 282 283 284 287 288 289 290 291 294 295 296 297 298 301 302 303 304 305
;

set TSCOPE['india.pm'] :=
3 4 7 8 9 10 11 14 15 16 17 18 21 22 23 24 25 28 29 30 31 32 35 36 37 38 39 42 43 44 45 46 49 50 51 52 53 56 57 58 59 60 63 64 65 66 67 70 71 72
73 74 77 78 79 80 81 84 85 86 87 88 91 92 93 94 95 98 99 100 101 102 105 106 107 108 109 112 113 114 115 116 119 120 121 123 126 127 128 129 130 133 134 135 136 137 140 141 142 143
144 147 148 149 150 151 154 155 156 157 158 161 162 163 164 165 168 169 170 171 172 175 176 177 178 179 182 183 184 185 186 189 190 191 192 193 196 197 198 199 200 203 204 205 206 207 210 211 212 213
214 217 218 219 220 221 224 225 226 227 228 231 232 233 234 235 238 239 240 241 242 245 246 247 248 249 252 253 254 255 256 259 260 261 262 263 266 267 268 269 270 273 274 275
;

set TSCOPE['india2.pf'] :=
78 79 80 81 84 85
;

set TSCOPE['india2.pm'] :=
3 4 7 8 9 10 11 14 15 16 17 18 21 22 23 24 25 28 29 30 31 32 35 36 37 38 39 42 43 44 45 46 49 50 51 52 53 56 57 58 59 60 63 64 65 66 67 70 71 72
73 74 77
;

set TSCOPE['juliet.pe'] :=
42 43 44 45 46 49 50 51 52 53 56 57 58 59
;

set TSCOPE['juliet.pf'] :=
183 184 185 186 189 190 191 192 193 196 197 198 199 200 203 204 205 206 207 210 211 212 213 214 217 218 219 220 221 224 225 226 227 228
;

set TSCOPE['juliet.pm'] :=
60 63 64 65 66 67 70 71 72 73 74 77 78 79 80 81 84 85 86 87 88 91 92 93 94 95 98 99 100 101 102 105 106 107 108 109 112 113 114 115 116 119 120 121 123 126 127 128 129 130
133 134 135 136 137 140 141 142 143 144 147 148 149 150 151 154 155 156 157 158 161 162 163 164 165 168 169 170 171 172 175 176 177 178 179 182
;

set TSCOPE['juliet2.pf'] :=
84 85 86 87 88 91 92
;

set TSCOPE['juliet2.pm'] :=
3 4 7 8 9 10 11 14 15 16 17 18 21 22 23 24 25 28 29 30 31 32 35 36 37 38 39 42 43 44 45 46 49 50 51 52 53 56 57 58 59 60 63 64 65 66 67 70 71 72
73 74 77 78 79 80 81
;

set TSCOPE['kilo.pe'] :=
63 64 65 66 67 70 71 72 73 74 77 78 79 80 81 84
;

set TSCOPE['kilo.pf'] :=
217 218 219 220 221 224 225 226 227 228 231 232 233 234 235 238 239 240 241 242 245 246 247 248 249 252 253 254 255 256 259 260
;

set TSCOPE['kilo.pm'] :=
85 86 87 88 91 92 93 94 95 98 99 100 101 102 105 106 107 108 109 112 113 114 115 116 119 120 121 123 126 127 128 129 130 133 134 135 136 137 140 141 142 143 144 147 148 149 150 151 154 155
156 157 158 161 162 163 164 165 168 169 170 171 172 175 176 177 178 179 182 183 184 185 186 189 190 191 192 193 196 197 198 199 200 203 204 205 206 207 210 211 212 213 214
;

set TSCOPE['kilo2.pf'] :=
58 59 60 63
;

set TSCOPE['kilo2.pm'] :=
3 4 7 8 9 10 11 14 15 16 17 18 21 22 23 24 25 28 29 30 31 32 35 36 37 38 39 42 43 44 45 46 49 50 51 52 53 56 57
;

set TSCOPE['lima.pe'] :=
81 84 85 86 87 88 91 92 93 94 95 98 99 100 101 102 105 106 107 108 109
;

set TSCOPE['lima.pf'] :=
308 309 310 311 312 315 316 317 318 319 322 323 324 325 326 329 330 331 332 333
;

set TSCOPE['lima.pm'] :=
112 113 114 115 116 119 120 121 123 126 127 128 129 130 133 134 135 136 137 140 141 142 143 144 147 148 149 150 151 154 155 156 157 158 161 162 163 164 165 168 169 170 171 172 175 176 177 178 179 182
183 184 185 186 189 190 191 192 193 196 197 198 199 200 203 204 205 206 207 210 211 212 213 214 217 218 219 220 221 224 225 226 227 228 231 232 233 234 235 238 239 240 241 242 245 246 247 248 249 252
253 254 255 256 259 260 261 262 263 266 267 268 269 270 273 274 275 276 277 280 281 282 283 284 287 288 289 290 291 294 295 296 297 298 301 302 303 304 305
;

set TSCOPE['lima2.pf'] :=
58 59 60 63
;

set TSCOPE['lima2.pm'] :=
3 4 7 8 9 10 11 14 15 16 17 18 21 22 23 24 25 28 29 30 31 32 35 36 37 38 39 42 43 44 45 46 49 50 51 52 53 56 57
;

set TSCOPE['mike.pe'] :=
101 102 105 106 107 108 109
;

set TSCOPE['mike.pf'] :=
270 273 274 275 276 277 280 281 282 283 284 287 288 289 290 291 294 295 296 297 298 301 302 303 304
;

set TSCOPE['mike.pm'] :=
112 113 114 115 116 119 120 121 123 126 127 128 129 130 133 134 135 136 137 140 141 142 143 144 147 148 149 150 151 154 155 156 157 158 161 162 163 164 165 168 169 170 171 172 175 176 177 178 179 182
183 184 185 186 189 190 191 192 193 196 197 198 199 200 203 204 205 206 207 210 211 212 213 214 217 218 219 220 221 224 225 226 227 228 231 232 233 234 235 238 239 240 241 242 245 246 247 248 249 252
253 254 255 256 259 260 261 262 263 266 267 268 269
;

set TSCOPE['mike2.pe'] :=
11 14 15 16
;

set TSCOPE['mike2.pf'] :=
140 141 142 143 144 147 148 149 150 151
;

set TSCOPE['mike2.pm'] :=
17 18 21 22 23 24 25 28 29 30 31 32 35 36 37 38 39 42 43 44 45 46 49 50 51 52 53 56 57 58 59 60 63 64 65 66 67 70 71 72 73 74 77 78 79 80 81 84 85 86
87 88 91 92 93 94 95 98 99 100 101 102 105 106 107 108 109 112 113 114 115 116 119 120 121 123 126 127 128 129 130 133 134 135 136 137
;

set TSCOPE['november.pe'] :=
147 148 149 150 151 154 155 156 157 158 161 162 163 164 165
;

set TSCOPE['november.pf'] :=
366 367 368 371 372 373 374 375 378 379 380 381 382 385 386 387 388 389 392 393 394 395 396
;

set TSCOPE['november.pm'] :=
168 169 170 171 172 175 176 177 178 179 182 183 184 185 186 189 190 191 192 193 196 197 198 199 200 203 204 205 206 207 210 211 212 213 214 217 218 219 220 221 224 225 226 227 228 231 232 233 234 235
238 239 240 241 242 245 246 247 248 249 252 253 254 255 256 259 260 261 262 263 266 267 268 269 270 273 274 275 276 277 280 281 282 283 284 287 288 289 290 291 294 295 296 297 298 301 302 303 304 305
308 309 310 311 312 315 316 317 318 319 322 323 324 325 326 329 330 331 332 333 336 337 338 339 340 343 344 345 346 347 350 351 352 353 354 357 358 359 360 361 364 365
;

set TSCOPE['november2.pf'] :=
88 91 92 93 94 95 98
;

set TSCOPE['november2.pm'] :=
3 4 7 8 9 10 11 14 15 16 17 18 21 22 23 24 25 28 29 30 31 32 35 36 37 38 39 42 43 44 45 46 49 50 51 52 53 56 57 58 59 60 63 64 65 66 67 70 71 72
73 74 77 78 79 80 81 84 85 86 87
;

set TSCOPE['oscar.pe'] :=
177 178 179 182 183 184 185 186 189 190 191
;

set TSCOPE['oscar.pf'] :=
366 367 368 371 372 373 374 375 378 379 380 381 382 385 386 387 388 389 392 393 394 395 396
;

set TSCOPE['oscar.pm'] :=
192 193 196 197 198 199 200 203 204 205 206 207 210 211 212 213 214 217 218 219 220 221 224 225 226 227 228 231 232 233 234 235 238 239 240 241 242 245 246 247 248 249 252 253 254 255 256 259 260 261
262 263 266 267 268 269 270 273 274 275 276 277 280 281 282 283 284 287 288 289 290 291 294 295 296 297 298 301 302 303 304 305 308 309 310 311 312 315 316 317 318 319 322 323 324 325 326 329 330 331
332 333 336 337 338 339 340 343 344 345 346 347 350 351 352 353 354 357 358 359 360 361 364 365
;

set TSCOPE['oscar2.pf'] :=
175 176 177 178 179 182
;

set TSCOPE['oscar2.pm'] :=
3 4 7 8 9 10 11 14 15 16 17 18 21 22 23 24 25 28 29 30 31 32 35 36 37 38 39 42 43 44 45 46 49 50 51 52 53 56 57 58 59 60 63 64 65 66 67 70 71 72
73 74 77 78 79 80 81 84 85 86 87 88 91 92 93 94 95 98 99 100 101 102 105 106 107 108 109 112 113 114 115 116 119 120 121 123 126 127 128 129 130 133 134 135 136 137 140 141 142 143
144 147 148 149 150 151 154 155 156 157 158 161 162 163 164 165 168 169 170 171 172
;

set TSCOPE['papa2.pf'] :=
175 176 177 178 179 182
;

set TSCOPE['papa2.pm'] :=
3 4 7 8 9 10 11 14 15 16 17 18 21 22 23 24 25 28 29 30 31 32 35 36 37 38 39 42 43 44 45 46 49 50 51 52 53 56 57 58 59 60 63 64 65 66 67 70 71 72
73 74 77 78 79 80 81 84 85 86 87 88 91 92 93 94 95 98 99 100 101 102 105 106 107 108 109 112 113 114 115 116 119 120 121 123 126 127 128 129 130 133 134 135 136 137 140 141 142 143
144 147 148 149 150 151 154 155 156 157 158 161 162 163 164 165 168 169 170 171 172
;

set TSCOPE['quebec2.pe'] :=
154 155 156 157 158 161 162 163 164 165 168 169 170 171 172 175 176 177 178
;

set TSCOPE['quebec2.pf'] :=
680 681 682 683 686 687 688 689 690 693 694 695 696 697 700 701 702 703 704 707 708 709 710 711 714 715 716 717 718 721 722 723 724 725 728 729 730 731 732 735
;

set TSCOPE['quebec2.pm'] :=
179 182 183 184 185 186 189 190 191 192 193 196 197 198 199 200 203 204 205 206 207 210 211 212 213 214 217 218 219 220 221 224 225 226 227 228 231 232 233 234 235 238 239 240 241 242 245 246 247 248
249 252 253 254 255 256 259 260 261 262 263 266 267 268 269 270 273 274 275 276 277 280 281 282 283 284 287 288 289 290 291 294 295 296 297 298 301 302 303 304 305 308 309 310 311 312 315 316 317 318
319 322 323 324 325 326 329 330 331 332 333 336 337 338 339 340 343 344 345 346 347 350 351 352 353 354 357 358 359 360 361 364 365 366 367 368 371 372 373 374 375 378 379 380 381 382 385 386 387 388
389 392 393 394 395 396 399 400 401 402 403 406 407 408 409 410 413 414 415 416 417 420 421 422 423 424 427 428 429 430 431 434 435 436 437 438 441 442 443 444 445 448 449 450 451 452 455 456 457 458
459 462 463 464 465 466 469 470 471 472 473 476 477 478 479 480 483 484 485 486 487 490 491 492 493 494 497 498 499 500 501 504 505 506 507 508 511 512 513 514 515 518 519 520 521 522 525 526 527 528
529 532 533 534 535 536 539 540 541 542 543 546 547 548 549 550 553 554 555 556 557 560 561 562 563 564 567 568 569 570 571 574 575 576 577 578 581 582 583 584 585 588 589 590 591 592 595 596 597 598
599 602 603 604 605 606 609 610 611 612 613 616 617 618 619 620 623 624 625 626 627 630 631 632 633 634 637 638 639 640 641 644 645 646 647 648 651 652 653 654 655 658 659 660 661 662 665 666 667 668
669 672 673 674 675 676 679
;

set TSCOPE['romeo2.pf'] :=
143 144 147 148 149 150 151 154
;

set TSCOPE['romeo2.pm'] :=
3 4 7 8 9 10 11 14 15 16 17 18 21 22 23 24 25 28 29 30 31 32 35 36 37 38 39 42 43 44 45 46 49 50 51 52 53 56 57 58 59 60 63 64 65 66 67 70 71 72
73 74 77 78 79 80 81 84 85 86 87 88 91 92 93 94 95 98 99 100 101 102 105 106 107 108 109 112 113 114 115 116 119 120 121 123 126 127 128 129 130 133 134 135 136 137 140 141 142
;

set TSCOPE['sierra2.pf'] :=
63 64 65 66 67 70
;

set TSCOPE['sierra2.pm'] :=
3 4 7 8 9 10 11 14 15 16 17 18 21 22 23 24 25 28 29 30 31 32 35 36 37 38 39 42 43 44 45 46 49 50 51 52 53 56 57 58 59 60
;

set TSCOPE['tango2.pe'] :=
35 36 37 38 39 42 43 44 45 46
;

set TSCOPE['tango2.pf'] :=
260 261 262 263 266 267 268 269 270 273 274 275
;

set TSCOPE['tango2.pm'] :=
49 50 51 52 53 56 57 58 59 60 63 64 65 66 67 70 71 72 73 74 77 78 79 80 81 84 85 86 87 88 91 92 93 94 95 98 99 100 101 102 105 106 107 108 109 112 113 114 115 116
119 120 121 123 126 127 128 129 130 133 134 135 136 137 140 141 142 143 144 147 148 149 150 151 154 155 156 157 158 161 162 163 164 165 168 169 170 171 172 175 176 177 178 179 182 183 184 185 186 189
190 191 192 193 196 197 198 199 200 203 204 205 206 207 210 211 212 213 214 217 218 219 220 221 224 225 226 227 228 231 232 233 234 235 238 239 240 241 242 245 246 247 248 249 252 253 254 255 256 259
;

set TSCOPE['uniform2.pe'] :=
123 126 127 128 129 130 133 134 135 136 137
;

set TSCOPE['uniform2.pf'] :=
409 410 413 414 415 416 417 420 421 422 423 424 427
;

set TSCOPE['uniform2.pm'] :=
140 141 142 143 144 147 148 149 150 151 154 155 156 157 158 161 162 163 164 165 168 169 170 171 172 175 176 177 178 179 182 183 184 185 186 189 190 191 192 193 196 197 198 199 200 203 204 205 206 207
210 211 212 213 214 217 218 219 220 221 224 225 226 227 228 231 232 233 234 235 238 239 240 241 242 245 246 247 248 249 252 253 254 255 256 259 260 261 262 263 266 267 268 269 270 273 274 275 276 277
280 281 282 283 284 287 288 289 290 291 294 295 296 297 298 301 302 303 304 305 308 309 310 311 312 315 316 317 318 319 322 323 324 325 326 329 330 331 332 333 336 337 338 339 340 343 344 345 346 347
350 351 352 353 354 357 358 359 360 361 364 365 366 367 368 371 372 373 374 375 378 379 380 381 382 385 386 387 388 389 392 393 394 395 396 399 400 401 402 403 406 407 408
;

set TSCOPE['victor2.pe'] :=
77 78 79 80 81 84 85 86 87 88 91 92 93 94 95 98 99 100
;

set TSCOPE['victor2.pf'] :=
232 233 234 235 238 239 240 241 242 245
;

set TSCOPE['victor2.pm'] :=
101 102 105 106 107 108 109 112 113 114 115 116 119 120 121 123 126 127 128 129 130 133 134 135 136 137 140 141 142 143 144 147 148 149 150 151 154 155 156 157 158 161 162 163 164 165 168 169 170 171
172 175 176 177 178 179 182 183 184 185 186 189 190 191 192 193 196 197 198 199 200 203 204 205 206 207 210 211 212 213 214 217 218 219 220 221 224 225 226 227 228 231
;

set TSCOPE['whisky2.pe'] :=
177 178 179 182 183 184 185 186 189 190 191 192
;

set TSCOPE['whisky2.pf'] :=
464 465 466 469 470 471 472 473 476 477 478 479 480 483 484 485 486
;

set TSCOPE['whisky2.pm'] :=
193 196 197 198 199 200 203 204 205 206 207 210 211 212 213 214 217 218 219 220 221 224 225 226 227 228 231 232 233 234 235 238 239 240 241 242 245 246 247 248 249 252 253 254 255 256 259 260 261 262
263 266 267 268 269 270 273 274 275 276 277 280 281 282 283 284 287 288 289 290 291 294 295 296 297 298 301 302 303 304 305 308 309 310 311 312 315 316 317 318 319 322 323 324 325 326 329 330 331 332
333 336 337 338 339 340 343 344 345 346 347 350 351 352 353 354 357 358 359 360 361 364 365 366 367 368 371 372 373 374 375 378 379 380 381 382 385 386 387 388 389 392 393 394 395 396 399 400 401 402
403 406 407 408 409 410 413 414 415 416 417 420 421 422 423 424 427 428 429 430 431 434 435 436 437 438 441 442 443 444 445 448 449 450 451 452 455 456 457 458 459 462 463
;

set TSCOPE['xray2.pe'] :=
197 198 199 200 203 204 205 206 207 210 211 212 213 214 217 218 219 220 221
;

set TSCOPE['xray2.pf'] :=
374 375 378 379 380 381 382 385 386 387 388 389 392 393 394 395 396
;

set TSCOPE['xray2.pm'] :=
224 225 226 227 228 231 232 233 234 235 238 239 240 241 242 245 246 247 248 249 252 253 254 255 256 259 260 261 262 263 266 267 268 269 270 273 274 275 276 277 280 281 282 283 284 287 288 289 290 291
294 295 296 297 298 301 302 303 304 305 308 309 310 311 312 315 316 317 318 319 322 323 324 325 326 329 330 331 332 333 336 337 338 339 340 343 344 345 346 347 350 351 352 353 354 357 358 359 360 361
364 365 366 367 368 371 372 373
;

set TSCOPE['zulu2.pe'] :=
168 169 170 171 172 175 176 177 178 179 182 183 184 185 186 189 190 191 192 193 196 197
;

set TSCOPE['zulu2.pf'] :=
329 330 331 332 333 336
;

set TSCOPE['zulu2.pm'] :=
198 199 200 203 204 205 206 207 210 211 212 213 214 217 218 219 220 221 224 225 226 227 228 231 232 233 234 235 238 239 240 241 242 245 246 247 248 249 252 253 254 255 256 259 260 261 262 263 266 267
268 269 270 273 274 275 276 277 280 281 282 283 284 287 288 289 290 291 294 295 296 297 298 301 302 303 304 305 308 309 310 311 312 315 316 317 318 319 322 323 324 325 326
;

set ENAME :=
'PM.Angel'
'PM.Anthony'
'PM.Daniel'
'PM.Fabian'
'PM.Henry'
'PM.Lisa';

set ASSIGN :=
('PM.Angel',*)
'charlie.pf'
'charlie.pm'
'delta.pf'
'delta.pm'
'juliet.pe'
'juliet.pf'
'juliet.pm'
'mike.pe'
'mike.pf'
'mike.pm'
'november.pe'
'november.pf'
'november.pm'
'oscar2.pf'
'oscar2.pm'
'papa2.pf'
'papa2.pm'
'quebec2.pe'
'quebec2.pf'
'quebec2.pm'
'sierra2.pf'
'sierra2.pm'
'xray2.pe'
'xray2.pf'
'xray2.pm'
('PM.Anthony',*)
'delta2.pf'
'delta2.pm'
'echo2.pf'
'echo2.pm'
'foxtrot2.pf'
'foxtrot2.pm'
'gamma2.pf'
'gamma2.pm'
'golf2.pf'
'golf2.pm'
'hotel2.pf'
'hotel2.pm'
'tango2.pe'
'tango2.pf'
'tango2.pm'
'uniform2.pe'
'uniform2.pf'
'uniform2.pm'
('PM.Daniel',*)
'alpha.pf'
'alpha.pm'
'beta.pf'
'beta.pm'
'india.pf'
'india.pm'
'lima2.pf'
'lima2.pm'
'mike2.pe'
'mike2.pf'
'mike2.pm'
'oscar.pe'
'oscar.pf'
'oscar.pm'
'whisky2.pe'
'whisky2.pf'
'whisky2.pm'
('PM.Fabian',*)
'india2.pf'
'india2.pm'
'kilo2.pf'
'kilo2.pm'
'november2.pf'
'november2.pm'
'romeo2.pf'
'romeo2.pm'
'victor2.pe'
'victor2.pf'
'victor2.pm'
('PM.Henry',*)
'alpha2.pe'
'alpha2.pf'
'alpha2.pm'
'beta2.pe'
'beta2.pf'
'beta2.pm'
'juliet2.pf'
'juliet2.pm'
('PM.Lisa',*)
'echo.pf'
'echo.pm'
'foxtrot.pf'
'foxtrot.pm'
'golf.pf'
'golf.pm'
'hotel.pf'
'hotel.pm'
'kilo.pe'
'kilo.pf'
'kilo.pm'
'lima.pe'
'lima.pf'
'lima.pm'
'zulu2.pe'
'zulu2.pf'
'zulu2.pm';

param:
XBID: XBEXPERT XBTASK XBS XBE XBL XBU :=
1 'PM.Angel' 'charlie.pf' 158 188 1 2
2 'PM.Angel' 'charlie.pm' 2 157 2 3
3 'PM.Angel' 'delta.pf' 58 103 0 1
4 'PM.Angel' 'delta.pm' 2 57 2 3
5 'PM.Angel' 'juliet.pe' 42 59 2 3
6 'PM.Angel' 'juliet.pf' 183 228 0 1
7 'PM.Angel' 'juliet.pm' 60 182 2 3
8 'PM.Angel' 'mike.pe' 101 111 5 6
9 'PM.Angel' 'mike.pf' 270 304 0 1
10 'PM.Angel' 'mike.pm' 112 269 1 2
11 'PM.Angel' 'november.pe' 147 166 2 3
12 'PM.Angel' 'november.pf' 366 397 0 1
13 'PM.Angel' 'november.pm' 167 365 0 2
14 'PM.Angel' 'oscar2.pf' 173 182 13 14
15 'PM.Angel' 'oscar2.pm' 2 172 1 2
16 'PM.Angel' 'papa2.pf' 173 182 13 14
17 'PM.Angel' 'papa2.pm' 2 172 3 4
18 'PM.Angel' 'quebec2.pe' 153 178 0 7
19 'PM.Angel' 'quebec2.pf' 680 735 2 3
20 'PM.Angel' 'quebec2.pm' 179 679 1 2
21 'PM.Angel' 'sierra2.pf' 63 70 6 7
22 'PM.Angel' 'sierra2.pm' 2 62 3 4
23 'PM.Angel' 'xray2.pe' 197 222 5 6
24 'PM.Angel' 'xray2.pf' 374 398 2 3
25 'PM.Angel' 'xray2.pm' 223 373 4 5
26 'PM.Anthony' 'delta2.pf' 173 183 5 6
27 'PM.Anthony' 'delta2.pm' 2 172 0 1
28 'PM.Anthony' 'echo2.pf' 23 70 1 2
29 'PM.Anthony' 'echo2.pm' 2 22 5 6
30 'PM.Anthony' 'foxtrot2.pf' 83 92 2 3
31 'PM.Anthony' 'foxtrot2.pm' 2 82 0 1
32 'PM.Anthony' 'gamma2.pf' 23 35 4 5
33 'PM.Anthony' 'gamma2.pm' 2 22 4 5
34 'PM.Anthony' 'golf2.pf' 83 91 10 11
35 'PM.Anthony' 'golf2.pm' 2 82 2 3
36 'PM.Anthony' 'hotel2.pf' 48 57 2 3
37 'PM.Anthony' 'hotel2.pm' 2 47 1 2
38 'PM.Anthony' 'tango2.pe' 33 48 20 21
39 'PM.Anthony' 'tango2.pf' 260 275 10 11
40 'PM.Anthony' 'tango2.pm' 49 259 4 5
41 'PM.Anthony' 'uniform2.pe' 122 137 18 19
42 'PM.Anthony' 'uniform2.pf' 409 427 6 7
43 'PM.Anthony' 'uniform2.pm' 138 408 3 4
44 'PM.Daniel' 'alpha.pf' 93 123 0 1
45 'PM.Daniel' 'alpha.pm' 2 92 2 3
46 'PM.Daniel' 'beta.pf' 173 218 0 1
47 'PM.Daniel' 'beta.pm' 2 172 2 3
48 'PM.Daniel' 'india.pf' 276 306 4 5
49 'PM.Daniel' 'india.pm' 2 275 2 3
50 'PM.Daniel' 'lima2.pf' 58 63 15 16
51 'PM.Daniel' 'lima2.pm' 2 57 2 3
52 'PM.Daniel' 'mike2.pe' 11 16 20 21
53 'PM.Daniel' 'mike2.pf' 138 153 8 9
54 'PM.Daniel' 'mike2.pm' 17 137 3 4
55 'PM.Daniel' 'oscar.pe' 177 191 5 6
56 'PM.Daniel' 'oscar.pf' 366 397 1 2
57 'PM.Daniel' 'oscar.pm' 192 365 2 3
58 'PM.Daniel' 'whisky2.pe' 177 192 20 21
59 'PM.Daniel' 'whisky2.pf' 464 486 4 5
60 'PM.Daniel' 'whisky2.pm' 193 463 4 5
61 'PM.Fabian' 'india2.pf' 78 85 6 7
62 'PM.Fabian' 'india2.pm' 2 77 3 4
63 'PM.Fabian' 'kilo2.pf' 58 63 15 16
64 'PM.Fabian' 'kilo2.pm' 2 57 3 4
65 'PM.Fabian' 'november2.pf' 88 98 11 12
66 'PM.Fabian' 'november2.pm' 2 87 3 4
67 'PM.Fabian' 'romeo2.pf' 143 154 7 8
68 'PM.Fabian' 'romeo2.pm' 2 142 1 2
69 'PM.Fabian' 'victor2.pe' 75 100 13 14
70 'PM.Fabian' 'victor2.pf' 232 245 8 9
71 'PM.Fabian' 'victor2.pm' 101 231 3 4
72 'PM.Henry' 'alpha2.pe' 28 33 8 9
73 'PM.Henry' 'alpha2.pf' 80 92 4 5
74 'PM.Henry' 'alpha2.pm' 34 79 4 5
75 'PM.Henry' 'beta2.pe' 6 16 25 26
76 'PM.Henry' 'beta2.pf' 198 217 11 12
77 'PM.Henry' 'beta2.pm' 17 197 2 3
78 'PM.Henry' 'juliet2.pf' 83 92 5 6
79 'PM.Henry' 'juliet2.pm' 2 82 3 4
80 'PM.Lisa' 'echo.pf' 93 138 0 1
81 'PM.Lisa' 'echo.pm' 2 75 1 2
82 'PM.Lisa' 'foxtrot.pf' 93 123 0 1
83 'PM.Lisa' 'foxtrot.pm' 2 92 1 2
84 'PM.Lisa' 'golf.pf' 134 179 1 2
85 'PM.Lisa' 'golf.pm' 2 133 1 2
86 'PM.Lisa' 'hotel.pf' 246 291 1 2
87 'PM.Lisa' 'hotel.pm' 2 245 1 2
88 'PM.Lisa' 'kilo.pe' 61 84 6 7
89 'PM.Lisa' 'kilo.pf' 215 260 2 3
90 'PM.Lisa' 'kilo.pm' 85 214 0 1
91 'PM.Lisa' 'lima.pe' 81 110 4 5
92 'PM.Lisa' 'lima.pf' 307 335 4 5
93 'PM.Lisa' 'lima.pm' 111 306 2 3
94 'PM.Lisa' 'zulu2.pe' 167 197 9 10
95 'PM.Lisa' 'zulu2.pf' 329 336 13 14
96 'PM.Lisa' 'zulu2.pm' 198 328 3 4;

param:
EBID: EBEXPERT EBS EBE EBL EBU :=
;

param:
PNAME: PERS PERE :=
'Jan.25' 1 16
'Feb.25' 17 45
'Mar.25' 46 76
'Apr.25' 77 105
'May.25' 106 139
'Jun.25' 140 170
'Jul.25' 171 199
'Aug.25' 200 230
'Sep.25' 231 259
'Oct.25' 260 289
'Nov.25' 290 317
'Dec.25' 318 346;

param:
EXPPER: PBL PBU :=
['PM.Angel',*]
'Apr.25' 0 720
'Aug.25' 0 720
'Dec.25' 0 720
'Feb.25' 0 720
'Jan.25' 0 720
'Jul.25' 0 720
'Jun.25' 0 720
'Mar.25' 0 720
'May.25' 0 720
'Nov.25' 0 720
'Oct.25' 0 720
'Sep.25' 0 720
['PM.Anthony',*]
'Apr.25' 0 720
'Aug.25' 0 720
'Dec.25' 0 720
'Feb.25' 0 720
'Jan.25' 0 720
'Jul.25' 0 720
'Jun.25' 0 720
'Mar.25' 0 720
'May.25' 0 720
'Nov.25' 0 720
'Oct.25' 0 720
'Sep.25' 0 720
['PM.Daniel',*]
'Apr.25' 0 720
'Aug.25' 0 720
'Dec.25' 0 720
'Feb.25' 0 720
'Jan.25' 0 720
'Jul.25' 0 720
'Jun.25' 0 720
'Mar.25' 0 720
'May.25' 0 720
'Nov.25' 0 720
'Oct.25' 0 720
'Sep.25' 0 720
['PM.Fabian',*]
'Apr.25' 0 720
'Aug.25' 0 720
'Dec.25' 0 720
'Feb.25' 0 720
'Jan.25' 0 720
'Jul.25' 0 720
'Jun.25' 0 720
'Mar.25' 0 720
'May.25' 0 720
'Nov.25' 0 720
'Oct.25' 0 720
'Sep.25' 0 720
['PM.Henry',*]
'Apr.25' 0 720
'Aug.25' 0 720
'Dec.25' 0 720
'Feb.25' 0 720
'Jan.25' 0 720
'Jul.25' 0 720
'Jun.25' 0 720
'Mar.25' 0 720
'May.25' 0 720
'Nov.25' 0 720
'Oct.25' 0 720
'Sep.25' 0 720
['PM.Lisa',*]
'Apr.25' 0 720
'Aug.25' 0 720
'Dec.25' 0 720
'Feb.25' 0 720
'Jan.25' 0 720
'Jul.25' 0 720
'Jun.25' 0 720
'Mar.25' 0 720
'May.25' 0 720
'Nov.25' 0 720
'Oct.25' 0 720
'Sep.25' 0 720;

